benchmark/results/graph__10-1000-0.10-04_10/graph__10-1000-0.10-04_10_QuintonOs_Benders_primal_sub.lp
\ This file has been generated by DOcplex
\ ENCODING=ISO-8859-1
\Problem name: Quinton Bounded Benders_primal_sub

Maximize
 obj: tau
Subject To
 c1: tau <= 0.001112347052
 c2: y_a0_proc_1 + y_a0_proc_2 + y_a0_proc_3 - tau = 0
 c3: y_a0_proc_1 <= 0
 c4: y_a0_proc_2 <= 0
 c5: y_a0_proc_3 <= 1
 c6: tau <= 0.001607717042
 c7: y_a1_proc_0 + y_a1_proc_1 + y_a1_proc_2 + y_a1_proc_3 - tau = 0
 c8: y_a1_proc_0 <= 0
 c9: y_a1_proc_1 <= 0
 c10: y_a1_proc_2 <= 1
 c11: y_a1_proc_3 <= 0
 c12: tau <= 0.001123595506
 c13: y_a2_proc_0 + y_a2_proc_2 + y_a2_proc_3 - tau = 0
 c14: y_a2_proc_0 <= 0
 c15: y_a2_proc_2 <= 0
 c16: y_a2_proc_3 <= 1
 c17: tau <= 0.001418439716
 c18: y_a3_proc_0 + y_a3_proc_1 + y_a3_proc_3 - tau = 0
 c19: y_a3_proc_0 <= 1
 c20: y_a3_proc_1 <= 0
 c21: y_a3_proc_3 <= 0
 c22: tau <= 0.001156069364
 c23: y_a4_proc_1 + y_a4_proc_2 - tau = 0
 c24: y_a4_proc_1 <= 1
 c25: y_a4_proc_2 <= 0
 c26: tau <= 0.001499250375
 c27: y_a5_proc_0 + y_a5_proc_1 + y_a5_proc_2 + y_a5_proc_3 - tau = 0
 c28: y_a5_proc_0 <= 0
 c29: y_a5_proc_1 <= 0
 c30: y_a5_proc_2 <= 0
 c31: y_a5_proc_3 <= 1
 c32: tau <= 0.000866551127
 c33: y_a6_proc_0 + y_a6_proc_2 + y_a6_proc_3 - tau = 0
 c34: y_a6_proc_0 <= 1
 c35: y_a6_proc_2 <= 0
 c36: y_a6_proc_3 <= 0
 c37: tau <= 0.001240694789
 c38: y_a7_proc_0 + y_a7_proc_1 + y_a7_proc_2 + y_a7_proc_3 - tau = 0
 c39: y_a7_proc_0 <= 0
 c40: y_a7_proc_1 <= 0
 c41: y_a7_proc_2 <= 1
 c42: y_a7_proc_3 <= 0
 c43: tau <= 0.001173708920
 c44: y_a8_proc_0 + y_a8_proc_2 + y_a8_proc_3 - tau = 0
 c45: y_a8_proc_0 <= 0
 c46: y_a8_proc_2 <= 1
 c47: y_a8_proc_3 <= 0
 c48: tau <= 0.000836820084
 c49: y_a9_proc_0 + y_a9_proc_2 + y_a9_proc_3 - tau = 0
 c50: y_a9_proc_0 <= 1
 c51: y_a9_proc_2 <= 0
 c52: y_a9_proc_3 <= 0
 c53: u_a0 - u_a1 - 1236 y_a1_proc_0 - 840 y_a1_proc_1 - 622 y_a1_proc_2
      - 994 y_a1_proc_3 >= 0
 c54: u_a2 - u_a0 - 849 y_a0_proc_1 - 706 y_a0_proc_2 - 899 y_a0_proc_3 >= 0
 c55: u_a3 - u_a1 - 1236 y_a1_proc_0 - 840 y_a1_proc_1 - 622 y_a1_proc_2
      - 994 y_a1_proc_3 >= 0
 c56: u_a4 - u_a2 - 1016 y_a2_proc_0 - 1017 y_a2_proc_2 - 890 y_a2_proc_3 >= -1
 c57: u_a5 - u_a4 - 865 y_a4_proc_1 - 928 y_a4_proc_2 >= 0
 c58: u_a6 - u_a3 - 705 y_a3_proc_0 - 1157 y_a3_proc_1 - 562 y_a3_proc_3 >= 0
 c59: u_a1 - u_a7 - 1242 y_a7_proc_0 - 1293 y_a7_proc_1 - 806 y_a7_proc_2
      - 1069 y_a7_proc_3 >= 0
 c60: u_a1 - u_a8 - 1115 y_a8_proc_0 - 852 y_a8_proc_2 - 871 y_a8_proc_3 >= -1
 c61: u_a3 - u_a9 - 1195 y_a9_proc_0 - 383 y_a9_proc_2 - 918 y_a9_proc_3 >= 0
 c62: u_a7 - u_a2 - 1016 y_a2_proc_0 - 1017 y_a2_proc_2 - 890 y_a2_proc_3 >= -1
 c63: u_a4 - u_a8 - 1115 y_a8_proc_0 - 852 y_a8_proc_2 - 871 y_a8_proc_3 >= 0
 c64: u_a2 - u_a5 - 938 y_a5_proc_0 - 808 y_a5_proc_1 - 932 y_a5_proc_2
      - 667 y_a5_proc_3 >= 0
 c65: u_a0 - u_a6 - 1154 y_a6_proc_0 - 651 y_a6_proc_2 - 1103 y_a6_proc_3 >= -1
 c66: u_a7 - u_a3 - 705 y_a3_proc_0 - 1157 y_a3_proc_1 - 562 y_a3_proc_3 >= -1
 c67: u_a8 - u_a1 - 1236 y_a1_proc_0 - 840 y_a1_proc_1 - 622 y_a1_proc_2
      - 994 y_a1_proc_3 >= 0
 c68: u_a1 - u_a0 - 706 y_a0_proc_2 >= -1307
 c69: u_a1 - u_a0 - 899 y_a0_proc_3 >= -1307
 c70: u_a1 - u_a0 - 849 y_a0_proc_1 >= -2600
 c71: u_a0 - u_a1 - 622 y_a1_proc_2 >= -1280
 c72: u_a0 - u_a1 - 994 y_a1_proc_3 >= -1280
 c73: u_a0 - u_a1 - 840 y_a1_proc_1 >= -2573
 c74: u_a2 - u_a0 - 706 y_a0_proc_2 >= -2586
 c75: u_a2 - u_a0 - 899 y_a0_proc_3 >= 0
 c76: u_a0 - u_a2 - 1017 y_a2_proc_2 >= -2587
 c77: u_a0 - u_a2 - 890 y_a2_proc_3 >= -1
 c78: u_a3 - u_a0 - 899 y_a0_proc_3 >= -1307
 c79: u_a3 - u_a0 - 849 y_a0_proc_1 >= -2600
 c80: u_a0 - u_a3 - 562 y_a3_proc_3 >= -1280
 c81: u_a0 - u_a3 - 1157 y_a3_proc_1 >= -2573
 c82: u_a4 - u_a0 - 706 y_a0_proc_2 >= -2573
 c83: u_a4 - u_a0 - 849 y_a0_proc_1 >= -1280
 c84: u_a0 - u_a4 - 928 y_a4_proc_2 >= -2600
 c85: u_a0 - u_a4 - 865 y_a4_proc_1 >= -1307
 c86: u_a5 - u_a0 - 706 y_a0_proc_2 >= -2586
 c87: u_a5 - u_a0 - 899 y_a0_proc_3 >= 0
 c88: u_a5 - u_a0 - 849 y_a0_proc_1 >= -2586
 c89: u_a0 - u_a5 - 932 y_a5_proc_2 >= -2587
 c90: u_a0 - u_a5 - 667 y_a5_proc_3 >= -1
 c91: u_a0 - u_a5 - 808 y_a5_proc_1 >= -2587
 c92: u_a6 - u_a0 - 706 y_a0_proc_2 >= -2600
 c93: u_a6 - u_a0 - 899 y_a0_proc_3 >= -1307
 c94: u_a0 - u_a6 - 651 y_a6_proc_2 >= -2573
 c95: u_a0 - u_a6 - 1103 y_a6_proc_3 >= -1280
 c96: u_a7 - u_a0 - 706 y_a0_proc_2 >= -1307
 c97: u_a7 - u_a0 - 899 y_a0_proc_3 >= -1307
 c98: u_a7 - u_a0 - 849 y_a0_proc_1 >= -2600
 c99: u_a0 - u_a7 - 806 y_a7_proc_2 >= -1280
 c100: u_a0 - u_a7 - 1069 y_a7_proc_3 >= -1280
 c101: u_a0 - u_a7 - 1293 y_a7_proc_1 >= -2573
 c102: u_a8 - u_a0 - 706 y_a0_proc_2 >= -1280
 c103: u_a8 - u_a0 - 899 y_a0_proc_3 >= -1280
 c104: u_a0 - u_a8 - 852 y_a8_proc_2 >= -1307
 c105: u_a0 - u_a8 - 871 y_a8_proc_3 >= -1307
 c106: u_a9 - u_a0 - 706 y_a0_proc_2 >= -2588
 c107: u_a9 - u_a0 - 899 y_a0_proc_3 >= -1295
 c108: u_a0 - u_a9 - 383 y_a9_proc_2 >= -2585
 c109: u_a0 - u_a9 - 918 y_a9_proc_3 >= -1292
 c110: u_a2 - u_a1 - 622 y_a1_proc_2 >= -1307
 c111: u_a2 - u_a1 - 994 y_a1_proc_3 >= -1307
 c112: u_a2 - u_a1 - 1236 y_a1_proc_0 >= -2600
 c113: u_a1 - u_a2 - 1017 y_a2_proc_2 >= -1280
 c114: u_a1 - u_a2 - 890 y_a2_proc_3 >= -1280
 c115: u_a1 - u_a2 - 1016 y_a2_proc_0 >= -2573
 c116: u_a3 - u_a1 - 994 y_a1_proc_3 >= -2600
 c117: u_a3 - u_a1 - 1236 y_a1_proc_0 >= -1307
 c118: u_a3 - u_a1 - 840 y_a1_proc_1 >= -2600
 c119: u_a1 - u_a3 - 562 y_a3_proc_3 >= -2573
 c120: u_a1 - u_a3 - 705 y_a3_proc_0 >= -1280
 c121: u_a1 - u_a3 - 1157 y_a3_proc_1 >= -2573
 c122: u_a4 - u_a1 - 622 y_a1_proc_2 >= -1307
 c123: u_a4 - u_a1 - 840 y_a1_proc_1 >= -1307
 c124: u_a1 - u_a4 - 928 y_a4_proc_2 >= -1280
 c125: u_a1 - u_a4 - 865 y_a4_proc_1 >= -1280
 c126: u_a5 - u_a1 - 622 y_a1_proc_2 >= -1307
 c127: u_a5 - u_a1 - 994 y_a1_proc_3 >= -1307
 c128: u_a5 - u_a1 - 1236 y_a1_proc_0 >= -2600
 c129: u_a5 - u_a1 - 840 y_a1_proc_1 >= -2600
 c130: u_a1 - u_a5 - 932 y_a5_proc_2 >= -1280
 c131: u_a1 - u_a5 - 667 y_a5_proc_3 >= -1280
 c132: u_a1 - u_a5 - 938 y_a5_proc_0 >= -2573
 c133: u_a1 - u_a5 - 808 y_a5_proc_1 >= -2573
 c134: u_a6 - u_a1 - 622 y_a1_proc_2 >= -1307
 c135: u_a6 - u_a1 - 994 y_a1_proc_3 >= -2600
 c136: u_a6 - u_a1 - 1236 y_a1_proc_0 >= -1307
 c137: u_a1 - u_a6 - 651 y_a6_proc_2 >= -1280
 c138: u_a1 - u_a6 - 1103 y_a6_proc_3 >= -2573
 c139: u_a1 - u_a6 - 1154 y_a6_proc_0 >= -1280
 c140: u_a7 - u_a1 - 622 y_a1_proc_2 >= -1
 c141: u_a7 - u_a1 - 994 y_a1_proc_3 >= -2587
 c142: u_a7 - u_a1 - 1236 y_a1_proc_0 >= -2587
 c143: u_a7 - u_a1 - 840 y_a1_proc_1 >= -2587
 c144: u_a1 - u_a7 - 806 y_a7_proc_2 >= 0
 c145: u_a1 - u_a7 - 1069 y_a7_proc_3 >= -2586
 c146: u_a1 - u_a7 - 1242 y_a7_proc_0 >= -2586
 c147: u_a1 - u_a7 - 1293 y_a7_proc_1 >= -2586
 c148: u_a8 - u_a1 - 622 y_a1_proc_2 >= 0
 c149: u_a8 - u_a1 - 994 y_a1_proc_3 >= -2586
 c150: u_a8 - u_a1 - 1236 y_a1_proc_0 >= -2586
 c151: u_a1 - u_a8 - 852 y_a8_proc_2 >= -1
 c152: u_a1 - u_a8 - 871 y_a8_proc_3 >= -2587
 c153: u_a1 - u_a8 - 1115 y_a8_proc_0 >= -2587
 c154: u_a9 - u_a1 - 622 y_a1_proc_2 >= -1280
 c155: u_a9 - u_a1 - 994 y_a1_proc_3 >= -2573
 c156: u_a9 - u_a1 - 1236 y_a1_proc_0 >= -1280
 c157: u_a1 - u_a9 - 383 y_a9_proc_2 >= -1307
 c158: u_a1 - u_a9 - 918 y_a9_proc_3 >= -2600
 c159: u_a1 - u_a9 - 1195 y_a9_proc_0 >= -1307
 c160: u_a3 - u_a2 - 890 y_a2_proc_3 >= -1307
 c161: u_a3 - u_a2 - 1016 y_a2_proc_0 >= -1307
 c162: u_a2 - u_a3 - 562 y_a3_proc_3 >= -1280
 c163: u_a2 - u_a3 - 705 y_a3_proc_0 >= -1280
 c164: u_a4 - u_a2 - 1017 y_a2_proc_2 >= -2600
 c165: u_a2 - u_a4 - 928 y_a4_proc_2 >= -2573
 c166: u_a5 - u_a2 - 1017 y_a2_proc_2 >= -2587
 c167: u_a5 - u_a2 - 890 y_a2_proc_3 >= -1
 c168: u_a5 - u_a2 - 1016 y_a2_proc_0 >= -2587
 c169: u_a2 - u_a5 - 932 y_a5_proc_2 >= -2586
 c170: u_a2 - u_a5 - 667 y_a5_proc_3 >= 0
 c171: u_a2 - u_a5 - 938 y_a5_proc_0 >= -2586
 c172: u_a6 - u_a2 - 1017 y_a2_proc_2 >= -2600
 c173: u_a6 - u_a2 - 890 y_a2_proc_3 >= -1307
 c174: u_a6 - u_a2 - 1016 y_a2_proc_0 >= -1307
 c175: u_a2 - u_a6 - 651 y_a6_proc_2 >= -2573
 c176: u_a2 - u_a6 - 1103 y_a6_proc_3 >= -1280
 c177: u_a2 - u_a6 - 1154 y_a6_proc_0 >= -1280
 c178: u_a7 - u_a2 - 1017 y_a2_proc_2 >= -1307
 c179: u_a7 - u_a2 - 890 y_a2_proc_3 >= -1307
 c180: u_a7 - u_a2 - 1016 y_a2_proc_0 >= -2600
 c181: u_a2 - u_a7 - 806 y_a7_proc_2 >= -1280
 c182: u_a2 - u_a7 - 1069 y_a7_proc_3 >= -1280
 c183: u_a2 - u_a7 - 1242 y_a7_proc_0 >= -2573
 c184: u_a8 - u_a2 - 1017 y_a2_proc_2 >= -1307
 c185: u_a8 - u_a2 - 890 y_a2_proc_3 >= -1307
 c186: u_a8 - u_a2 - 1016 y_a2_proc_0 >= -2600
 c187: u_a2 - u_a8 - 852 y_a8_proc_2 >= -1280
 c188: u_a2 - u_a8 - 871 y_a8_proc_3 >= -1280
 c189: u_a2 - u_a8 - 1115 y_a8_proc_0 >= -2573
 c190: u_a9 - u_a2 - 1017 y_a2_proc_2 >= -2588
 c191: u_a9 - u_a2 - 890 y_a2_proc_3 >= -1295
 c192: u_a9 - u_a2 - 1016 y_a2_proc_0 >= -1295
 c193: u_a2 - u_a9 - 383 y_a9_proc_2 >= -2585
 c194: u_a2 - u_a9 - 918 y_a9_proc_3 >= -1292
 c195: u_a2 - u_a9 - 1195 y_a9_proc_0 >= -1292
 c196: u_a4 - u_a3 - 1157 y_a3_proc_1 >= -1280
 c197: u_a3 - u_a4 - 865 y_a4_proc_1 >= -1307
 c198: u_a5 - u_a3 - 562 y_a3_proc_3 >= -1307
 c199: u_a5 - u_a3 - 705 y_a3_proc_0 >= -1307
 c200: u_a5 - u_a3 - 1157 y_a3_proc_1 >= -2600
 c201: u_a3 - u_a5 - 667 y_a5_proc_3 >= -1280
 c202: u_a3 - u_a5 - 938 y_a5_proc_0 >= -1280
 c203: u_a3 - u_a5 - 808 y_a5_proc_1 >= -2573
 c204: u_a6 - u_a3 - 562 y_a3_proc_3 >= -2586
 c205: u_a6 - u_a3 - 705 y_a3_proc_0 >= 0
 c206: u_a3 - u_a6 - 1103 y_a6_proc_3 >= -2587
 c207: u_a3 - u_a6 - 1154 y_a6_proc_0 >= -1
 c208: u_a7 - u_a3 - 562 y_a3_proc_3 >= -2600
 c209: u_a7 - u_a3 - 705 y_a3_proc_0 >= -1307
 c210: u_a7 - u_a3 - 1157 y_a3_proc_1 >= -2600
 c211: u_a3 - u_a7 - 1069 y_a7_proc_3 >= -2573
 c212: u_a3 - u_a7 - 1242 y_a7_proc_0 >= -1280
 c213: u_a3 - u_a7 - 1293 y_a7_proc_1 >= -2573
 c214: u_a8 - u_a3 - 562 y_a3_proc_3 >= -2600
 c215: u_a8 - u_a3 - 705 y_a3_proc_0 >= -1307
 c216: u_a3 - u_a8 - 871 y_a8_proc_3 >= -2573
 c217: u_a3 - u_a8 - 1115 y_a8_proc_0 >= -1280
 c218: u_a9 - u_a3 - 562 y_a3_proc_3 >= -2600
 c219: u_a9 - u_a3 - 705 y_a3_proc_0 >= -14
 c220: u_a3 - u_a9 - 918 y_a9_proc_3 >= -2573
 c221: u_a3 - u_a9 - 1195 y_a9_proc_0 >= 13
 c222: u_a5 - u_a4 - 928 y_a4_proc_2 >= -2600
 c223: u_a5 - u_a4 - 865 y_a4_proc_1 >= -1307
 c224: u_a4 - u_a5 - 932 y_a5_proc_2 >= -2573
 c225: u_a4 - u_a5 - 808 y_a5_proc_1 >= -1280
 c226: u_a6 - u_a4 - 928 y_a4_proc_2 >= -2600
 c227: u_a4 - u_a6 - 651 y_a6_proc_2 >= -2573
 c228: u_a7 - u_a4 - 928 y_a4_proc_2 >= -1307
 c229: u_a7 - u_a4 - 865 y_a4_proc_1 >= -1307
 c230: u_a4 - u_a7 - 806 y_a7_proc_2 >= -1280
 c231: u_a4 - u_a7 - 1293 y_a7_proc_1 >= -1280
 c232: u_a8 - u_a4 - 928 y_a4_proc_2 >= -1307
 c233: u_a4 - u_a8 - 852 y_a8_proc_2 >= -1280
 c234: u_a9 - u_a4 - 928 y_a4_proc_2 >= -2600
 c235: u_a4 - u_a9 - 383 y_a9_proc_2 >= -2573
 c236: u_a6 - u_a5 - 932 y_a5_proc_2 >= -2600
 c237: u_a6 - u_a5 - 667 y_a5_proc_3 >= -1307
 c238: u_a6 - u_a5 - 938 y_a5_proc_0 >= -1307
 c239: u_a5 - u_a6 - 651 y_a6_proc_2 >= -2573
 c240: u_a5 - u_a6 - 1103 y_a6_proc_3 >= -1280
 c241: u_a5 - u_a6 - 1154 y_a6_proc_0 >= -1280
 c242: u_a7 - u_a5 - 932 y_a5_proc_2 >= -1307
 c243: u_a7 - u_a5 - 667 y_a5_proc_3 >= -1307
 c244: u_a7 - u_a5 - 938 y_a5_proc_0 >= -2600
 c245: u_a7 - u_a5 - 808 y_a5_proc_1 >= -2600
 c246: u_a5 - u_a7 - 806 y_a7_proc_2 >= -1280
 c247: u_a5 - u_a7 - 1069 y_a7_proc_3 >= -1280
 c248: u_a5 - u_a7 - 1242 y_a7_proc_0 >= -2573
 c249: u_a5 - u_a7 - 1293 y_a7_proc_1 >= -2573
 c250: u_a8 - u_a5 - 932 y_a5_proc_2 >= -1307
 c251: u_a8 - u_a5 - 667 y_a5_proc_3 >= -1307
 c252: u_a8 - u_a5 - 938 y_a5_proc_0 >= -2600
 c253: u_a5 - u_a8 - 852 y_a8_proc_2 >= -1280
 c254: u_a5 - u_a8 - 871 y_a8_proc_3 >= -1280
 c255: u_a5 - u_a8 - 1115 y_a8_proc_0 >= -2573
 c256: u_a9 - u_a5 - 932 y_a5_proc_2 >= -2588
 c257: u_a9 - u_a5 - 667 y_a5_proc_3 >= -1295
 c258: u_a9 - u_a5 - 938 y_a5_proc_0 >= -1295
 c259: u_a5 - u_a9 - 383 y_a9_proc_2 >= -2585
 c260: u_a5 - u_a9 - 918 y_a9_proc_3 >= -1292
 c261: u_a5 - u_a9 - 1195 y_a9_proc_0 >= -1292
 c262: u_a7 - u_a6 - 651 y_a6_proc_2 >= -1307
 c263: u_a7 - u_a6 - 1103 y_a6_proc_3 >= -2600
 c264: u_a7 - u_a6 - 1154 y_a6_proc_0 >= -1307
 c265: u_a6 - u_a7 - 806 y_a7_proc_2 >= -1280
 c266: u_a6 - u_a7 - 1069 y_a7_proc_3 >= -2573
 c267: u_a6 - u_a7 - 1242 y_a7_proc_0 >= -1280
 c268: u_a8 - u_a6 - 651 y_a6_proc_2 >= -1307
 c269: u_a8 - u_a6 - 1103 y_a6_proc_3 >= -2600
 c270: u_a8 - u_a6 - 1154 y_a6_proc_0 >= -1307
 c271: u_a6 - u_a8 - 852 y_a8_proc_2 >= -1280
 c272: u_a6 - u_a8 - 871 y_a8_proc_3 >= -2573
 c273: u_a6 - u_a8 - 1115 y_a8_proc_0 >= -1280
 c274: u_a9 - u_a6 - 651 y_a6_proc_2 >= -2600
 c275: u_a9 - u_a6 - 1103 y_a6_proc_3 >= -2600
 c276: u_a9 - u_a6 - 1154 y_a6_proc_0 >= -14
 c277: u_a6 - u_a9 - 383 y_a9_proc_2 >= -2573
 c278: u_a6 - u_a9 - 918 y_a9_proc_3 >= -2573
 c279: u_a6 - u_a9 - 1195 y_a9_proc_0 >= 13
 c280: u_a8 - u_a7 - 806 y_a7_proc_2 >= 0
 c281: u_a8 - u_a7 - 1069 y_a7_proc_3 >= -2586
 c282: u_a8 - u_a7 - 1242 y_a7_proc_0 >= -2586
 c283: u_a7 - u_a8 - 852 y_a8_proc_2 >= -1
 c284: u_a7 - u_a8 - 871 y_a8_proc_3 >= -2587
 c285: u_a7 - u_a8 - 1115 y_a8_proc_0 >= -2587
 c286: u_a9 - u_a7 - 806 y_a7_proc_2 >= -1307
 c287: u_a9 - u_a7 - 1069 y_a7_proc_3 >= -2600
 c288: u_a9 - u_a7 - 1242 y_a7_proc_0 >= -1307
 c289: u_a7 - u_a9 - 383 y_a9_proc_2 >= -1280
 c290: u_a7 - u_a9 - 918 y_a9_proc_3 >= -2573
 c291: u_a7 - u_a9 - 1195 y_a9_proc_0 >= -1280
 c292: u_a9 - u_a8 - 852 y_a8_proc_2 >= -1307
 c293: u_a9 - u_a8 - 871 y_a8_proc_3 >= -2600
 c294: u_a9 - u_a8 - 1115 y_a8_proc_0 >= -1307
 c295: u_a8 - u_a9 - 383 y_a9_proc_2 >= -1280
 c296: u_a8 - u_a9 - 918 y_a9_proc_3 >= -2573
 c297: u_a8 - u_a9 - 1195 y_a9_proc_0 >= -1280

Bounds
End
