benchmark/results/graph__10-1000-0.10-04_10/graph__10-1000-0.10-04_10_QuintonOs_Benders_primal_sub.txt
solution for: Quinton Bounded Benders_primal_sub
objective: 0.000212675
status: OPTIMAL_SOLUTION(2)
u_a0=12.708
u_a1=12.575
u_a2=13.215
u_a3=13.254
u_a4=12.889
u_a5=13.073
u_a6=13.404
u_a7=12.404
u_a8=12.708
tau=0.000
y_a0_proc_3=0.000
y_a1_proc_2=0.000
y_a2_proc_3=0.000
y_a3_proc_0=0.000
y_a4_proc_1=0.000
y_a5_proc_3=0.000
y_a6_proc_0=0.000
y_a7_proc_2=0.000
y_a8_proc_2=0.000
y_a9_proc_0=0.000
